HorasDisponibles = 24 ; 		% Cantidad de horas habiles para que barco pueda partir

NumBarcos = 110 ; 		% Cantidad de barcos que cruzaran el canal

NumCanales = 8;  

Velocidades = [ 
66000  ,		%  Barco 1
66000  ,		%  Barco 2
66000  ,		%  Barco 3
66000  ,		%  Barco 4
66000  ,		%  Barco 5
66000  ,		%  Barco 6
66000  ,		%  Barco 7
66000  ,		%  Barco 8
539  ,		%  Barco 9
491  ,		%  Barco 10
552  ,		%  Barco 11
497  ,		%  Barco 12
541  ,		%  Barco 13
621  ,		%  Barco 14
576  ,		%  Barco 15
566  ,		%  Barco 16
623  ,		%  Barco 17
722  ,		%  Barco 18
369  ,		%  Barco 19
434  ,		%  Barco 20
528  ,		%  Barco 21
529  ,		%  Barco 22
432  ,		%  Barco 23
384  ,		%  Barco 24
379  ,		%  Barco 25
790  ,		%  Barco 26
471  ,		%  Barco 27
497  ,		%  Barco 28
575  ,		%  Barco 29
482  ,		%  Barco 30
498  ,		%  Barco 31
527  ,		%  Barco 32
753  ,		%  Barco 33
490  ,		%  Barco 34
573  ,		%  Barco 35
677  ,		%  Barco 36
590  ,		%  Barco 37
507  ,		%  Barco 38
574  ,		%  Barco 39
643  ,		%  Barco 40
188  ,		%  Barco 41
668  ,		%  Barco 42
185  ,		%  Barco 43
637  ,		%  Barco 44
505  ,		%  Barco 45
582  ,		%  Barco 46
513  ,		%  Barco 47
532  ,		%  Barco 48
663  ,		%  Barco 49
415  ,		%  Barco 50
536  ,		%  Barco 51
661  ,		%  Barco 52
509  ,		%  Barco 53
525  ,		%  Barco 54
358  ,		%  Barco 55
528  ,		%  Barco 56
711  ,		%  Barco 57
397  ,		%  Barco 58
815  ,		%  Barco 59
468  ,		%  Barco 60
717  ,		%  Barco 61
479  ,		%  Barco 62
523  ,		%  Barco 63
264  ,		%  Barco 64
367  ,		%  Barco 65
419  ,		%  Barco 66
386  ,		%  Barco 67
545  ,		%  Barco 68
353  ,		%  Barco 69
631  ,		%  Barco 70
350  ,		%  Barco 71
691  ,		%  Barco 72
359  ,		%  Barco 73
584  ,		%  Barco 74
491  ,		%  Barco 75
726  ,		%  Barco 76
537  ,		%  Barco 77
535  ,		%  Barco 78
408  ,		%  Barco 79
374  ,		%  Barco 80
677  ,		%  Barco 81
566  ,		%  Barco 82
500  ,		%  Barco 83
592  ,		%  Barco 84
578  ,		%  Barco 85
461  ,		%  Barco 86
601  ,		%  Barco 87
464  ,		%  Barco 88
436  ,		%  Barco 89
202  ,		%  Barco 90
645  ,		%  Barco 91
531  ,		%  Barco 92
432  ,		%  Barco 93
571  ,		%  Barco 94
403  ,		%  Barco 95
540  ,		%  Barco 96
396  ,		%  Barco 97
400  ,		%  Barco 98
458  ,		%  Barco 99
734  ,		%  Barco 100
530  ,		%  Barco 101
411  ,		%  Barco 102
571  ,		%  Barco 103
740  ,		%  Barco 104
417  ,		%  Barco 105
365  ,		%  Barco 106
461  ,		%  Barco 107
460  ,		%  Barco 108
492  ,		%  Barco 109
547  ,		%  Barco 110
221  ,		%  Barco 111
824  ,		%  Barco 112
555  ,		%  Barco 113
424  ,		%  Barco 114
478  ,		%  Barco 115
404  ,		%  Barco 116
686  ,		%  Barco 117
193  ,		%  Barco 118
66000  ,		%  Barco 119
66000  ,		%  Barco 120
66000  ,		%  Barco 121
66000  ,		%  Barco 122
66000  ,		%  Barco 123
66000  ,		%  Barco 124
66000  ,		%  Barco 125
66000  ,		%  Barco 126
 ]; 
HoraEstimadaCruce = [ 
0  ,		%  Barco 1
0  ,		%  Barco 2
0  ,		%  Barco 3
0  ,		%  Barco 4
0  ,		%  Barco 5
0  ,		%  Barco 6
0  ,		%  Barco 7
0  ,		%  Barco 8
6  ,		%  Barco 9
8  ,		%  Barco 10
24  ,		%  Barco 11
7  ,		%  Barco 12
9  ,		%  Barco 13
14  ,		%  Barco 14
15  ,		%  Barco 15
2  ,		%  Barco 16
7  ,		%  Barco 17
23  ,		%  Barco 18
24  ,		%  Barco 19
18  ,		%  Barco 20
14  ,		%  Barco 21
22  ,		%  Barco 22
22  ,		%  Barco 23
23  ,		%  Barco 24
2  ,		%  Barco 25
16  ,		%  Barco 26
5  ,		%  Barco 27
22  ,		%  Barco 28
16  ,		%  Barco 29
9  ,		%  Barco 30
23  ,		%  Barco 31
12  ,		%  Barco 32
6  ,		%  Barco 33
1  ,		%  Barco 34
14  ,		%  Barco 35
6  ,		%  Barco 36
9  ,		%  Barco 37
13  ,		%  Barco 38
17  ,		%  Barco 39
11  ,		%  Barco 40
15  ,		%  Barco 41
0  ,		%  Barco 42
24  ,		%  Barco 43
4  ,		%  Barco 44
7  ,		%  Barco 45
13  ,		%  Barco 46
7  ,		%  Barco 47
18  ,		%  Barco 48
11  ,		%  Barco 49
4  ,		%  Barco 50
5  ,		%  Barco 51
3  ,		%  Barco 52
24  ,		%  Barco 53
12  ,		%  Barco 54
9  ,		%  Barco 55
3  ,		%  Barco 56
21  ,		%  Barco 57
11  ,		%  Barco 58
13  ,		%  Barco 59
6  ,		%  Barco 60
21  ,		%  Barco 61
6  ,		%  Barco 62
19  ,		%  Barco 63
22  ,		%  Barco 64
15  ,		%  Barco 65
3  ,		%  Barco 66
13  ,		%  Barco 67
24  ,		%  Barco 68
18  ,		%  Barco 69
9  ,		%  Barco 70
21  ,		%  Barco 71
8  ,		%  Barco 72
13  ,		%  Barco 73
19  ,		%  Barco 74
8  ,		%  Barco 75
22  ,		%  Barco 76
2  ,		%  Barco 77
6  ,		%  Barco 78
5  ,		%  Barco 79
0  ,		%  Barco 80
14  ,		%  Barco 81
10  ,		%  Barco 82
14  ,		%  Barco 83
9  ,		%  Barco 84
23  ,		%  Barco 85
19  ,		%  Barco 86
19  ,		%  Barco 87
21  ,		%  Barco 88
22  ,		%  Barco 89
23  ,		%  Barco 90
23  ,		%  Barco 91
9  ,		%  Barco 92
9  ,		%  Barco 93
8  ,		%  Barco 94
7  ,		%  Barco 95
14  ,		%  Barco 96
4  ,		%  Barco 97
12  ,		%  Barco 98
14  ,		%  Barco 99
22  ,		%  Barco 100
4  ,		%  Barco 101
7  ,		%  Barco 102
21  ,		%  Barco 103
23  ,		%  Barco 104
13  ,		%  Barco 105
23  ,		%  Barco 106
4  ,		%  Barco 107
16  ,		%  Barco 108
8  ,		%  Barco 109
20  ,		%  Barco 110
3  ,		%  Barco 111
7  ,		%  Barco 112
0  ,		%  Barco 113
10  ,		%  Barco 114
15  ,		%  Barco 115
4  ,		%  Barco 116
15  ,		%  Barco 117
6  ,		%  Barco 118
24  ,		%  Barco 119
24  ,		%  Barco 120
24  ,		%  Barco 121
24  ,		%  Barco 122
24  ,		%  Barco 123
24  ,		%  Barco 124
24  ,		%  Barco 125
24  ,		%  Barco 126
 ]; 
PuntoDeArranque = [ 
0  ,		%  Barco 1
0  ,		%  Barco 2
0  ,		%  Barco 3
0  ,		%  Barco 4
0  ,		%  Barco 5
0  ,		%  Barco 6
0  ,		%  Barco 7
0  ,		%  Barco 8
0  ,		%  Barco 9
1  ,		%  Barco 10
1  ,		%  Barco 11
1  ,		%  Barco 12
0  ,		%  Barco 13
0  ,		%  Barco 14
0  ,		%  Barco 15
1  ,		%  Barco 16
0  ,		%  Barco 17
0  ,		%  Barco 18
1  ,		%  Barco 19
0  ,		%  Barco 20
0  ,		%  Barco 21
1  ,		%  Barco 22
1  ,		%  Barco 23
0  ,		%  Barco 24
1  ,		%  Barco 25
0  ,		%  Barco 26
1  ,		%  Barco 27
1  ,		%  Barco 28
0  ,		%  Barco 29
0  ,		%  Barco 30
0  ,		%  Barco 31
1  ,		%  Barco 32
1  ,		%  Barco 33
0  ,		%  Barco 34
1  ,		%  Barco 35
1  ,		%  Barco 36
0  ,		%  Barco 37
1  ,		%  Barco 38
0  ,		%  Barco 39
0  ,		%  Barco 40
1  ,		%  Barco 41
0  ,		%  Barco 42
1  ,		%  Barco 43
1  ,		%  Barco 44
1  ,		%  Barco 45
1  ,		%  Barco 46
0  ,		%  Barco 47
1  ,		%  Barco 48
0  ,		%  Barco 49
0  ,		%  Barco 50
0  ,		%  Barco 51
1  ,		%  Barco 52
1  ,		%  Barco 53
0  ,		%  Barco 54
1  ,		%  Barco 55
0  ,		%  Barco 56
1  ,		%  Barco 57
1  ,		%  Barco 58
1  ,		%  Barco 59
1  ,		%  Barco 60
0  ,		%  Barco 61
1  ,		%  Barco 62
1  ,		%  Barco 63
1  ,		%  Barco 64
1  ,		%  Barco 65
0  ,		%  Barco 66
1  ,		%  Barco 67
0  ,		%  Barco 68
1  ,		%  Barco 69
0  ,		%  Barco 70
1  ,		%  Barco 71
0  ,		%  Barco 72
0  ,		%  Barco 73
1  ,		%  Barco 74
1  ,		%  Barco 75
1  ,		%  Barco 76
1  ,		%  Barco 77
0  ,		%  Barco 78
0  ,		%  Barco 79
0  ,		%  Barco 80
0  ,		%  Barco 81
0  ,		%  Barco 82
1  ,		%  Barco 83
0  ,		%  Barco 84
1  ,		%  Barco 85
1  ,		%  Barco 86
0  ,		%  Barco 87
1  ,		%  Barco 88
1  ,		%  Barco 89
0  ,		%  Barco 90
1  ,		%  Barco 91
1  ,		%  Barco 92
1  ,		%  Barco 93
0  ,		%  Barco 94
1  ,		%  Barco 95
0  ,		%  Barco 96
1  ,		%  Barco 97
1  ,		%  Barco 98
0  ,		%  Barco 99
1  ,		%  Barco 100
1  ,		%  Barco 101
0  ,		%  Barco 102
0  ,		%  Barco 103
1  ,		%  Barco 104
0  ,		%  Barco 105
0  ,		%  Barco 106
0  ,		%  Barco 107
1  ,		%  Barco 108
1  ,		%  Barco 109
0  ,		%  Barco 110
1  ,		%  Barco 111
1  ,		%  Barco 112
1  ,		%  Barco 113
0  ,		%  Barco 114
0  ,		%  Barco 115
1  ,		%  Barco 116
1  ,		%  Barco 117
0  ,		%  Barco 118
0  ,		%  Barco 119
0  ,		%  Barco 120
0  ,		%  Barco 121
0  ,		%  Barco 122
0  ,		%  Barco 123
0  ,		%  Barco 124
0  ,		%  Barco 125
0  ,		%  Barco 126
 ]; 
